100
150
100
100
100
100
99
99
98
98
97
96
96
94
94
94
92
91
90
88
87
86
85
84
83
82
82
82
81
80
79
75
74
73
72
72
72
72
71
69
68
68
67
65
65
65
65
65
64
62
60
60
59
59
58
57
57
57
56
55
54
54
53
52
52
49
49
47
45
45
45
43
42
41
41
40
39
39
36
35
34
34
34
33
31
31
31
30
30
30
29
28
27
26
26
24
23
22
21
20
20
20
